nTask=5;
nAgent=5;
nSubtask=11;
Tasks = {
<1,1,2,8>
<1,2,1,0>
<2,1,1,0>
<3,1,5,10>
<3,2,1,9>
<3,3,4,0>
<4,1,5,5>
<4,2,3,1>
<4,3,2,0>
<5,1,5,8>
<5,2,4,0>
};
Waits = {
<1,1,4,3,4>
<2,1,5,1,2>
<3,1,4,3,4>
<4,2,3,1,5>
<5,1,3,3,7>
};
Deadlines = {
<2,1,3,3,245>
<3,1,4,2,236>
<4,2,5,1,239>
};
Modes = {
<1,1,1,7>
<1,2,1,7>
<1,2,3,6>
<2,1,1,5>
<3,1,2,2>
<3,2,5,1>
<3,3,2,4>
<4,1,1,6>
<4,1,2,5>
<4,1,5,2>
<4,2,5,4>
<4,3,1,8>
<5,1,4,5>
<5,2,2,2>
};
